(set-info :smt-lib-version 2.6)
(set-logic QF_UFLRA)
(set-info :source |
MathSat group

|)
(set-info :category "random")
(set-info :status unsat)
(declare-fun x0 () Real)
(declare-fun x1 () Real)
(declare-fun x2 () Real)
(declare-fun x3 () Real)
(declare-fun x4 () Real)
(declare-fun x5 () Real)
(declare-fun x6 () Real)
(declare-fun x7 () Real)
(declare-fun x8 () Real)
(declare-fun x9 () Real)
(declare-fun x10 () Real)
(declare-fun x11 () Real)
(declare-fun x12 () Real)
(declare-fun x13 () Real)
(declare-fun x14 () Real)
(declare-fun x15 () Real)
(declare-fun x16 () Real)
(declare-fun x17 () Real)
(declare-fun x18 () Real)
(declare-fun x19 () Real)
(declare-fun x20 () Real)
(declare-fun x21 () Real)
(declare-fun x22 () Real)
(declare-fun x23 () Real)
(declare-fun x24 () Real)
(declare-fun x25 () Real)
(declare-fun x26 () Real)
(declare-fun x27 () Real)
(declare-fun x28 () Real)
(declare-fun x29 () Real)
(declare-fun f0_1 (Real) Real)
(declare-fun f0_2 (Real Real) Real)
(declare-fun f0_3 (Real Real Real) Real)
(declare-fun f0_4 (Real Real Real Real) Real)
(declare-fun P0 () Bool)
(declare-fun P1 () Bool)
(declare-fun P2 () Bool)
(declare-fun P3 () Bool)
(declare-fun P4 () Bool)
(declare-fun P5 () Bool)
(declare-fun P6 () Bool)
(declare-fun P7 () Bool)
(declare-fun P8 () Bool)
(declare-fun P9 () Bool)
(declare-fun P10 () Bool)
(declare-fun P11 () Bool)
(declare-fun P12 () Bool)
(declare-fun P13 () Bool)
(declare-fun P14 () Bool)
(declare-fun P15 () Bool)
(declare-fun P16 () Bool)
(declare-fun P17 () Bool)
(declare-fun P18 () Bool)
(declare-fun P19 () Bool)
(declare-fun P20 () Bool)
(declare-fun P21 () Bool)
(declare-fun P22 () Bool)
(declare-fun P23 () Bool)
(declare-fun P24 () Bool)
(declare-fun P25 () Bool)
(declare-fun P26 () Bool)
(declare-fun P27 () Bool)
(declare-fun P28 () Bool)
(declare-fun P29 () Bool)
(assert (let ((?v_30 (* 17 x12)) (?v_117 (<= (- (+ (* 38 x28) (* 31 x18)) (* 17 x29)) 13)) (?v_1 (distinct (+ (- (* 21 x10) (* 35 x8)) (* 24 x7)) 27)) (?v_51 (< (- (- (* 7 x17) (* 21 x25)) (* 25 x3)) 18)) (?v_7 (distinct (- (- (* 13 x21) (* 33 x16)) (* 10 x26)) 7)) (?v_63 (<= (- (- (* 39 x6) (* 17 x23)) (* 30 x16)) 25)) (?v_104 (< (+ (- (* 2 x26) (* 40 x11)) (* 3 x8)) 6)) (?v_61 (<= (- (- (* 9 x12) (* 15 x12)) (* 16 x1)) 36)) (?v_26 (f0_1 x2))) (let ((?v_107 (distinct (f0_2 x18 x5) ?v_26)) (?v_50 (distinct ?v_26 (f0_1 x11))) (?v_100 (= (f0_2 x0 x19) (f0_1 x18))) (?v_19 (= (f0_2 x8 x9) (f0_1 x24))) (?v_10 (f0_1 x16))) (let ((?v_44 (= ?v_10 ?v_26)) (?v_62 (= x25 x2)) (?v_17 (= x18 (f0_2 x4 x13))) (?v_60 (= ?v_10 x8)) (?v_38 (distinct (f0_2 x13 x8) x18)) (?v_85 (f0_1 x19))) (let ((?v_152 (= (f0_2 x10 x19) ?v_85)) (?v_15 (f0_1 x6))) (let ((?v_2 (= ?v_15 (f0_2 x19 x18))) (?v_29 (distinct (f0_2 x5 x26) (f0_2 x19 x26))) (?v_22 (distinct x4 ?v_10)) (?v_23 (distinct (f0_2 x19 x8) ?v_15)) (?v_113 (= (f0_1 x1) x10)) (?v_42 (distinct (f0_2 x24 x22) x6)) (?v_40 (= (f0_2 x23 x21) (f0_1 x10))) (?v_8 (= (f0_1 x5) (f0_2 x26 x7))) (?v_82 (= x20 x21)) (?v_70 (= (f0_1 x7) x6)) (?v_13 (distinct x27 ?v_85)) (?v_116 (distinct (f0_1 x20) x25)) (?v_55 (= ?v_10 (f0_1 x22))) (?v_4 (distinct (f0_2 x0 x17) x14)) (?v_115 (distinct (f0_2 x0 x2) (f0_1 x28))) (?v_137 (= x10 (f0_2 x27 x4))) (?v_54 (= x11 x0)) (?v_36 (distinct x4 (f0_2 x18 x12))) (?v_18 (= (f0_2 x29 x29) (f0_2 x17 x13))) (?v_68 (distinct x1 x8))) (let ((?v_93 (not ?v_55)) (?v_9 (not ?v_13)) (?v_83 (not ?v_115)) (?v_21 (not ?v_50)) (?v_31 (not P23)) (?v_28 (not ?v_70)) (?v_112 (not P7)) (?v_24 (not P12)) (?v_20 (not ?v_2)) (?v_118 (not P8)) (?v_155 (not P0)) (?v_25 (not ?v_7)) (?v_67 (not P1)) (?v_14 (not ?v_54)) (?v_43 (not ?v_42)) (?v_127 (not P29)) (?v_41 (not P22)) (?v_71 (not ?v_18)) (?v_94 (not P16)) (?v_45 (not ?v_19)) (?v_37 (not ?v_23)) (?v_134 (not ?v_117)) (?v_131 (not ?v_1)) (?v_64 (not ?v_29)) (?v_52 (not P13)) (?v_53 (not P20)) (?v_153 (not ?v_4)) (?v_108 (not P14)) (?v_96 (not P18)) (?v_102 (not ?v_100)) (?v_124 (not ?v_137)) (?v_76 (not ?v_36)) (?v_59 (not ?v_62)) (?v_159 (or ?v_63 ?v_40)) (?v_47 (not P2)) (?v_66 (not P10)) (?v_73 (not ?v_82)) (?v_121 (not P27)) (?v_78 (not P5)) (?v_125 (not P28)) (?v_89 (not P9)) (?v_95 (not ?v_51)) (?v_88 (not ?v_38)) (?v_69 (not ?v_116)) (?v_98 (not ?v_63)) (?v_99 (not ?v_44)) (?v_81 (not P19)) (?v_84 (not ?v_40))) (let ((?v_140 (or P25 ?v_76)) (?v_111 (not ?v_60)) (?v_126 (not ?v_104)) (?v_122 (not P11)) (?v_133 (not ?v_22)) (?v_103 (not ?v_152)) (?v_136 (not ?v_8)) (?v_144 (not P21)) (?v_145 (not ?v_68)) (?v_151 (not P6)) (?v_119 (not ?v_113)) (?v_141 (not P25)) (?v_142 (not ?v_17)) (?v_128 (not ?v_61)) (?v_129 (not P24)) (?v_148 (not P4)) (?v_147 (not P26)) (?v_150 (not ?v_107)) (?v_143 (not P3)) (?v_149 (not P17)) (?v_157 (not P15)) (?v_0 (< (+ x15 (* 42 x13) (* 23 x12)) 31)) (?v_3 (< (- (- x26 (* 18 x5)) (* 33 x24)) 17))) (let ((?v_16 (not ?v_3)) (?v_65 (= (- (+ x2 (* 42 x5)) (* 5 x4)) 36)) (?v_49 (distinct (- (* 42 x12) (* 32 x8)) 12))) (let ((?v_90 (not ?v_49)) (?v_87 (not ?v_0)) (?v_130 (< (+ (- (* 30 x19) x8) (* 18 x13)) 21)) (?v_123 (not ?v_65))) (let ((?v_146 (not ?v_130)) (?v_158 (or ?v_130 P28)) (?v_35 (< (+ (* (- 23) x16) (* 30 x13) (* 27 x8)) 3))) (let ((?v_97 (not ?v_35)) (?v_34 (distinct (- (- (* 5 x3) (* 3 x5)) (* 22 x15)) (- 23))) (?v_6 (distinct (+ (* (- 22) x27) (* 23 x23) (* 24 x23)) (- 19)))) (let ((?v_106 (not ?v_6)) (?v_5 (= (+ (* (- 20) x18) (* 11 x12) (* 19 x13)) 35))) (let ((?v_91 (not ?v_5)) (?v_57 (= (+ (* (- 19) x5) (* 30 x1) (* 14 x29)) (- 16)))) (let ((?v_27 (not ?v_57)) (?v_79 (= (+ (- (* (- 42) x5) (* 39 x19)) (* 29 x17)) (- 27))) (?v_12 (<= (- (- (* (- 32) x9) (* 24 x20)) (* 11 x21)) (- 36)))) (let ((?v_11 (not ?v_12)) (?v_33 (< (- (+ (* (- 24) x25) (* 39 x20)) 0) (- 8)))) (let ((?v_86 (not ?v_33)) (?v_32 (< (- (+ (* 31 x23) (* 42 x15)) (* 34 x4)) (- 14))) (?v_74 (<= (+ (- (* (- 28) x8) (* 32 x14)) (* 30 x21)) 37))) (let ((?v_46 (not ?v_74)) (?v_39 (< (+ (* (- 13) x12) (* 33 x1) ?v_30) 5))) (let ((?v_105 (not ?v_39)) (?v_72 (< (+ (- (* (- 2) x20) (* 2 x4)) (* 17 x19)) 33)) (?v_48 (< (- (+ (* 20 x15) (* 6 x2)) (* 3 x15)) (- 18))) (?v_154 (< (+ (- (* (- 22) x20) (* 4 x6)) (* 21 x18)) 41))) (let ((?v_110 (not ?v_154)) (?v_58 (<= (+ (- (* 26 x20) (* 38 x26)) ?v_30) (- 42))) (?v_75 (distinct (- (+ (* 33 x12) (* 18 x15)) (* 18 x21)) (- 21)))) (let ((?v_56 (not ?v_75)) (?v_120 (not ?v_48)) (?v_77 (= (- (- (* (- 42) x13) (* 40 x3)) (* 41 x19)) 44))) (let ((?v_109 (not ?v_77)) (?v_114 (< (- (- 0 (* 25 x14)) (* 28 x21)) (- 27))) (?v_80 (not ?v_34)) (?v_101 (not ?v_79)) (?v_92 (not ?v_72))) (let ((?v_135 (or P17 ?v_92)) (?v_132 (not ?v_32)) (?v_138 (not ?v_58)) (?v_139 (not ?v_114)) (?v_156 (or ?v_77 ?v_38))) (and (and (and (and (and (and (and (and (and (and (and (and (and (and (and (and (and (and (and (and (and (and (and (and (and (and (and (and (and (and (and (and (and (and (and (and (and (and (and (and (and (and (and (and (and (and (and (and (and (and (and (and (and (and (and (and (and (and (and (and (and (and (and (and (and (and (and (and (and (and (and (and (and (and (and (and (and (and (and (and (and (and (and (and (and (and (and (and (and (and (and (and (and (and (and (and (and (and (and (and (and (and (and (and (and (and (and (and (and (and (and (and (and (and (and (and (and (and (and (and (and (and (and (and (and (and (and (and (and (and (and (and (and (and (and (and (and (and (and (and (and (and (and (and (and (and (and (and (and (and (and (and (and (and (and (and (and (and (and (and (and (and (and (and (and (and (and (and (and (and (and (and (and (and (and (and (and (and (and (and (and (and (and (and (and (and (and (and (and (and (and (and (and (and (and (and (and (and (and (and (and (and (and (and (and (and (and (and (and (and (and (and (and (and (and (and (and (and (and (and (and (and (and (and (and (and (and (and (and (and (and (and (and (and (and (and (and (and (and (and (and (and (and (and (and (and (and (and (and (and (and (and (and (and (and (and (and (and (and (and (and (and (and (and (and (and (and (and (and (and (and (and (and (and (and (and (and (and (and (and (and (and (and (and (and (and (and (and (and (and (and (and (and (and (and (and (and (and (and (and (and (and (and (and (and (and (and (and (and (and (and (and (and (and (and (and (and (and (and (and (and (and (and (and (and (and (and (and (and (and (and (and (and (and (and (and (and (and (and (and (and (and (and (and (and (and (and (and (and (and (and (and (and (and (and (and (and (and (and (and (and (and (and (and (and (and (and (and (and (and (and (and (and (and (and (and (and (and (and (and (and (and (and (and (and (and (and (and (and (and (and (and (and (and (and (and (and (and (and (and (and (and (and (and (and (and (and (and (and (and (and (and (and (and (and (and (and (and (and (and (and (and (and (and (and (and (and (and (and (and (and (and (and (and (and (and (and (and (and (and (and (and (and (and (and (and (and (and (and (or (or ?v_4 ?v_93) ?v_97) (or (or ?v_9 ?v_2) ?v_83)) (or (or ?v_0 P8) ?v_1)) (or (or ?v_0 P17) ?v_21)) (or (or ?v_34 ?v_1) ?v_2)) (or (or ?v_31 P8) ?v_8)) (or (or P15 P24) ?v_106)) (or (or ?v_91 ?v_16) ?v_19)) (or (or ?v_3 ?v_7) ?v_4)) (or (or ?v_27 ?v_65) ?v_28)) (or (or ?v_112 ?v_24) ?v_5)) (or (or ?v_20 ?v_118) P22)) (or (or ?v_155 ?v_79) ?v_17)) (or (or ?v_6 ?v_25) P3)) (or (or ?v_8 ?v_9) ?v_11)) (or (or ?v_67 ?v_22) ?v_11)) (or (or P11 ?v_3) ?v_14)) (or (or ?v_43 ?v_12) ?v_127)) (or (or ?v_61 ?v_13) P28)) (or (or ?v_14 P2) ?v_41)) (or (or P22 ?v_23) P24)) (or (or P16 ?v_16) ?v_68)) (or (or ?v_51 ?v_17) ?v_18)) (or (or ?v_9 ?v_71) ?v_36)) (or (or ?v_94 ?v_45) ?v_20)) (or (or ?v_86 ?v_32) ?v_21)) (or (or ?v_22 ?v_46) ?v_105)) (or (or ?v_37 ?v_24) P11)) (or (or ?v_25 ?v_29) ?v_72)) (or (or P5 ?v_44) ?v_22)) (or (or ?v_12 ?v_134) P22)) (or (or ?v_131 ?v_48) ?v_27)) (or (or ?v_28 ?v_64) ?v_52)) (or (or ?v_1 ?v_53) P24)) (or (or ?v_90 ?v_110) ?v_58)) (or (or ?v_18 ?v_31) ?v_2)) (or (or ?v_40 ?v_32) ?v_33)) (or (or ?v_24 ?v_20) ?v_153)) (or (or ?v_60 ?v_56) P17)) (or (or P20 ?v_108) ?v_96)) (or (or ?v_34 ?v_35) ?v_24)) (or (or ?v_38 ?v_22) ?v_102)) (or (or P15 P26) ?v_124)) (or (or ?v_76 ?v_37) ?v_38)) (or (or ?v_39 P15) ?v_59)) (or ?v_159 P9)) (or (or ?v_47 ?v_21) ?v_66)) (or (or ?v_41 ?v_73) ?v_42)) (or (or ?v_121 ?v_43) ?v_44)) (or (or ?v_78 ?v_45) ?v_32)) (or (or ?v_125 ?v_46) ?v_33)) (or (or ?v_1 ?v_47) P19)) (or (or ?v_89 ?v_2) ?v_17)) (or (or ?v_120 ?v_49) ?v_50)) (or (or ?v_11 ?v_51) ?v_52)) (or (or ?v_28 ?v_109) ?v_40)) (or (or ?v_53 P23) ?v_46)) (or (or ?v_5 ?v_54) ?v_16)) (or (or ?v_55 P16) ?v_56)) (or (or ?v_57 ?v_27) ?v_58)) (or (or ?v_50 ?v_58) ?v_59)) (or (or ?v_52 ?v_95) ?v_42)) (or (or ?v_60 ?v_88) ?v_25)) (or (or P16 P1) ?v_4)) (or (or ?v_69 ?v_61) ?v_62)) (or (or ?v_51 ?v_98) ?v_64)) (or (or P15 ?v_60) ?v_65)) (or (or P7 ?v_114) ?v_52)) (or (or P21 ?v_58) P25)) (or (or ?v_66 ?v_67) ?v_39)) (or (or ?v_99 ?v_80) ?v_16)) (or (or ?v_68 ?v_69) ?v_9)) (or (or ?v_20 ?v_70) ?v_81)) (or (or P23 P17) P9)) (or (or P5 ?v_84) ?v_11)) (or (or ?v_113 ?v_4) ?v_71)) (or (or ?v_23 P19) ?v_87)) (or (or ?v_72 P29) ?v_47)) (or (or ?v_6 P23) ?v_62)) (or (or ?v_73 ?v_74) ?v_9)) (or (or P16 ?v_75) P23)) (or ?v_140 ?v_25)) (or (or ?v_37 ?v_73) ?v_77)) (or (or ?v_78 ?v_101) ?v_22)) (or (or ?v_111 P24) ?v_22)) (or (or P19 P23) ?v_80)) (or (or ?v_126 P28) ?v_81)) (or (or ?v_14 P26) ?v_82)) (or (or ?v_83 ?v_28) ?v_92)) (or (or ?v_84 ?v_122) ?v_133)) (or (or P27 ?v_103) ?v_86)) (or (or ?v_87 P11) ?v_88)) (or (or P10 ?v_60) P24)) (or (or ?v_42 ?v_22) ?v_76)) (or (or ?v_89 ?v_7) ?v_53)) (or (or ?v_90 ?v_136) ?v_91)) (or ?v_135 ?v_93)) (or (or ?v_144 ?v_130) ?v_94)) (or (or ?v_53 ?v_95) ?v_96)) (or (or ?v_97 ?v_52) P4)) (or (or ?v_71 ?v_6) ?v_98)) (or (or ?v_43 ?v_35) ?v_145)) (or (or ?v_99 ?v_40) ?v_100)) (or (or P18 ?v_35) P5)) (or (or P0 ?v_101) ?v_40)) (or (or ?v_102 ?v_107) ?v_103)) (or (or P8 ?v_17) P21)) (or (or ?v_91 ?v_91) ?v_53)) (or (or ?v_104 ?v_52) ?v_95)) (or (or P26 ?v_87) ?v_2)) (or (or ?v_57 ?v_105) P18)) (or (or ?v_106 ?v_50) ?v_40)) (or (or ?v_107 ?v_84) ?v_108)) (or (or ?v_48 P3) P29)) (or (or ?v_50 ?v_123) ?v_24)) (or (or P23 ?v_109) ?v_62)) (or (or ?v_54 ?v_110) ?v_57)) (or (or ?v_39 ?v_132) ?v_34)) (or (or ?v_28 ?v_111) ?v_112)) (or (or ?v_80 ?v_151) ?v_119)) (or (or ?v_114 ?v_97) ?v_86)) (or (or ?v_115 ?v_44) P2)) (or (or ?v_116 ?v_70) ?v_33)) (or (or ?v_65 ?v_95) ?v_117)) (or (or ?v_118 ?v_119) ?v_80)) (or (or ?v_103 P10) P8)) (or (or ?v_25 ?v_54) ?v_105)) (or (or ?v_120 P19) ?v_141)) (or (or ?v_52 ?v_86) ?v_82)) (or (or ?v_82 ?v_18) ?v_84)) (or (or ?v_121 ?v_142) P8)) (or (or ?v_3 ?v_122) P23)) (or (or ?v_123 ?v_128) ?v_124)) (or (or ?v_53 ?v_125) ?v_116)) (or (or P9 ?v_6) ?v_72)) (or (or P8 P7) ?v_114)) (or (or ?v_117 P15) ?v_98)) (or (or ?v_104 ?v_47) ?v_115)) (or (or ?v_126 ?v_32) P1)) (or (or ?v_31 ?v_77) ?v_34)) (or (or ?v_125 ?v_96) ?v_11)) (or (or ?v_11 P21) ?v_118)) (or (or ?v_46 ?v_68) ?v_109)) (or (or ?v_129 ?v_78) ?v_8)) (or (or ?v_62 ?v_81) ?v_120)) (or (or ?v_81 ?v_97) ?v_138)) (or (or ?v_49 P28) ?v_127)) (or (or ?v_97 ?v_8) ?v_122)) (or (or ?v_62 ?v_128) ?v_44)) (or (or ?v_16 ?v_60) ?v_104)) (or (or ?v_125 ?v_47) ?v_127)) (or (or ?v_98 ?v_99) P11)) (or (or P5 ?v_60) ?v_22)) (or (or ?v_41 ?v_129) ?v_148)) (or (or ?v_5 ?v_107) ?v_97)) (or (or ?v_63 ?v_126) ?v_33)) (or (or ?v_101 ?v_64) ?v_130)) (or (or ?v_48 ?v_1) ?v_83)) (or (or ?v_106 P3) ?v_4)) (or (or P5 P5) ?v_43)) (or (or ?v_70 ?v_131) ?v_55)) (or (or P10 ?v_28) ?v_52)) (or (or ?v_65 ?v_69) ?v_147)) (or (or ?v_105 ?v_96) ?v_6)) (or (or ?v_64 ?v_116) ?v_110)) (or (or ?v_111 P6) ?v_98)) (or (or P9 ?v_11) ?v_22)) (or (or ?v_37 P3) P9)) (or (or ?v_61 ?v_55) ?v_146)) (or (or ?v_98 ?v_114) ?v_57)) (or (or P26 ?v_132) ?v_109)) (or (or ?v_101 ?v_75) ?v_83)) (or (or ?v_107 ?v_46) ?v_19)) (or (or ?v_150 ?v_67) ?v_133)) (or (or ?v_139 ?v_32) ?v_117)) (or (or ?v_134 P26) ?v_91)) (or (or ?v_113 P7) ?v_12)) (or (or P8 ?v_123) P25)) (or (or ?v_122 ?v_49) ?v_100)) (or ?v_135 ?v_6)) (or (or ?v_136 P2) ?v_17)) (or (or ?v_62 P28) ?v_60)) (or (or ?v_123 P3) P1)) (or (or P14 P19) ?v_79)) (or (or ?v_7 ?v_13) ?v_110)) (or (or ?v_2 ?v_105) P5)) (or (or ?v_137 P2) ?v_89)) (or (or ?v_27 ?v_143) ?v_35)) (or (or P2 ?v_45) ?v_69)) (or (or ?v_75 P28) ?v_138)) (or (or ?v_72 ?v_119) ?v_14)) (or (or ?v_44 ?v_116) ?v_71)) (or (or ?v_58 P8) ?v_64)) (or (or P2 ?v_126) ?v_40)) (or (or P3 ?v_22) ?v_14)) (or (or P12 ?v_139) P10)) (or (or ?v_73 ?v_82) ?v_38)) (or (or ?v_80 ?v_137) ?v_8)) (or (or ?v_134 P5) ?v_108)) (or (or ?v_81 P27) P2)) (or (or P4 ?v_36) ?v_68)) (or (or ?v_62 ?v_65) ?v_24)) (or (or P16 ?v_107) ?v_125)) (or (or ?v_5 ?v_94) ?v_117)) (or (or P0 P15) ?v_9)) (or (or ?v_118 ?v_113) ?v_41)) (or (or ?v_35 ?v_56) ?v_7)) (or (or ?v_66 ?v_38) ?v_19)) (or ?v_140 ?v_82)) (or (or P7 ?v_141) ?v_132)) (or (or ?v_70 ?v_13) ?v_23)) (or (or P19 P8) ?v_123)) (or (or P6 ?v_103) ?v_142)) (or (or ?v_64 ?v_143) ?v_144)) (or (or ?v_93 P16) ?v_125)) (or (or ?v_43 P14) ?v_21)) (or (or ?v_97 ?v_143) P16)) (or (or ?v_40 ?v_133) ?v_37)) (or (or ?v_145 ?v_77) ?v_41)) (or (or ?v_149 ?v_126) ?v_39)) (or (or ?v_57 P27) ?v_130)) (or (or ?v_16 ?v_84) ?v_124)) (or (or ?v_115 ?v_146) ?v_138)) (or (or ?v_120 ?v_132) ?v_54)) (or (or ?v_55 ?v_41) ?v_12)) (or (or ?v_139 P12) ?v_23)) (or (or ?v_18 ?v_147) ?v_119)) (or (or ?v_103 ?v_56) ?v_139)) (or (or ?v_148 P19) ?v_84)) (or (or ?v_109 ?v_39) ?v_6)) (or (or ?v_41 ?v_9) P15)) (or (or ?v_42 ?v_131) ?v_25)) (or (or ?v_102 ?v_101) P7)) (or (or P25 ?v_13) ?v_39)) (or (or ?v_16 ?v_139) ?v_46)) (or (or ?v_96 ?v_34) ?v_67)) (or (or P5 ?v_131) ?v_42)) (or (or ?v_145 ?v_25) ?v_90)) (or (or ?v_13 ?v_51) ?v_114)) (or (or P1 ?v_19) ?v_131)) (or (or ?v_38 ?v_145) ?v_131)) (or (or ?v_39 ?v_104) ?v_149)) (or (or ?v_102 ?v_95) ?v_90)) (or ?v_158 ?v_141)) (or (or ?v_100 ?v_66) P0)) (or (or ?v_133 ?v_108) ?v_73)) (or (or ?v_23 ?v_97) ?v_67)) (or (or ?v_107 ?v_73) ?v_136)) (or (or ?v_129 ?v_117) ?v_111)) (or (or ?v_29 ?v_87) ?v_122)) (or (or ?v_84 ?v_127) ?v_7)) (or (or ?v_61 ?v_119) ?v_90)) (or (or ?v_130 ?v_41) ?v_0)) (or (or ?v_101 ?v_74) ?v_150)) (or (or ?v_157 ?v_13) P21)) (or (or ?v_134 ?v_13) ?v_93)) (or (or ?v_21 P12) ?v_96)) (or (or P5 ?v_37) ?v_21)) (or (or ?v_17 ?v_141) ?v_93)) (or (or ?v_151 ?v_62) ?v_94)) (or (or P22 ?v_56) ?v_80)) (or (or ?v_71 ?v_110) ?v_127)) (or (or ?v_32 ?v_45) ?v_37)) (or (or ?v_142 ?v_2) P25)) (or (or ?v_134 ?v_35) ?v_13)) (or (or ?v_99 ?v_52) ?v_117)) (or (or ?v_17 ?v_59) ?v_76)) (or (or ?v_56 P17) ?v_150)) (or (or ?v_52 ?v_132) ?v_23)) (or (or ?v_119 ?v_32) ?v_93)) (or (or ?v_142 ?v_117) ?v_32)) (or (or ?v_79 ?v_121) ?v_48)) (or (or ?v_31 ?v_117) ?v_91)) (or (or ?v_39 ?v_58) ?v_86)) (or (or ?v_86 P2) ?v_1)) (or (or ?v_52 ?v_143) ?v_66)) (or (or ?v_106 ?v_133) ?v_47)) (or (or P12 ?v_131) ?v_104)) (or (or P6 ?v_151) ?v_133)) (or (or ?v_27 ?v_124) ?v_110)) (or (or ?v_0 ?v_44) ?v_116)) (or (or ?v_74 P13) ?v_113)) (or (or ?v_35 ?v_150) ?v_151)) (or (or ?v_77 ?v_118) P26)) (or (or ?v_94 ?v_62) ?v_54)) (or (or ?v_82 ?v_33) ?v_134)) (or (or ?v_4 P11) ?v_152)) (or (or ?v_1 ?v_34) ?v_128)) (or (or ?v_153 ?v_80) ?v_130)) (or (or ?v_94 ?v_88) ?v_43)) (or (or ?v_154 ?v_99) ?v_133)) (or (or ?v_123 ?v_48) ?v_23)) (or (or P26 ?v_72) ?v_12)) (or (or ?v_53 ?v_32) ?v_154)) (or (or ?v_110 ?v_29) ?v_113)) (or (or P17 ?v_66) P5)) (or (or ?v_120 ?v_27) ?v_95)) (or (or P4 ?v_139) ?v_137)) (or (or ?v_54 ?v_95) ?v_32)) (or (or ?v_43 P8) P22)) (or (or ?v_90 ?v_81) ?v_128)) (or (or ?v_97 ?v_77) ?v_76)) (or (or ?v_128 ?v_60) ?v_110)) (or (or P29 ?v_117) ?v_55)) (or (or P5 ?v_137) ?v_23)) (or (or ?v_84 P27) P3)) (or (or P9 ?v_100) ?v_70)) (or (or ?v_100 P15) ?v_38)) (or (or ?v_52 P11) ?v_45)) (or (or ?v_55 ?v_92) ?v_53)) (or (or ?v_152 ?v_1) ?v_40)) (or (or ?v_150 ?v_31) P3)) (or (or P24 ?v_69) ?v_70)) (or (or P8 ?v_57) ?v_91)) (or (or ?v_52 P21) ?v_73)) (or (or ?v_139 ?v_139) P11)) (or (or ?v_60 P27) ?v_17)) (or (or ?v_120 ?v_138) ?v_84)) (or (or ?v_110 ?v_31) ?v_118)) (or (or ?v_96 ?v_115) ?v_150)) (or (or ?v_9 ?v_27) ?v_52)) (or (or ?v_71 ?v_136) ?v_122)) (or (or ?v_79 ?v_146) ?v_104)) (or (or ?v_49 ?v_14) P6)) (or (or ?v_86 ?v_92) ?v_7)) (or (or ?v_130 ?v_49) ?v_126)) (or (or ?v_71 ?v_77) P18)) (or (or ?v_152 ?v_76) ?v_124)) (or (or ?v_83 ?v_36) ?v_34)) (or (or ?v_23 ?v_128) ?v_16)) (or (or ?v_153 ?v_72) P12)) (or (or ?v_100 ?v_50) ?v_121)) (or (or ?v_105 ?v_46) ?v_50)) (or (or P27 ?v_5) P15)) (or (or ?v_80 ?v_143) ?v_51)) (or (or ?v_17 ?v_50) ?v_68)) (or (or ?v_84 ?v_28) ?v_69)) (or (or ?v_13 P26) ?v_92)) (or (or ?v_116 P2) ?v_103)) (or (or P18 P18) P2)) (or (or ?v_70 ?v_122) ?v_78)) (or (or ?v_125 ?v_56) ?v_132)) (or (or ?v_25 ?v_81) ?v_4)) (or (or P11 ?v_101) ?v_47)) (or (or ?v_8 ?v_59) P20)) (or ?v_156 ?v_149)) (or (or ?v_20 ?v_129) ?v_117)) (or (or ?v_9 ?v_0) ?v_56)) (or (or ?v_50 ?v_78) ?v_41)) (or (or ?v_153 ?v_68) P28)) (or (or ?v_78 ?v_145) ?v_150)) (or (or ?v_155 ?v_108) ?v_25)) (or (or ?v_9 ?v_81) ?v_39)) (or (or ?v_110 P21) ?v_120)) (or (or ?v_61 ?v_5) ?v_146)) (or (or ?v_95 ?v_29) ?v_154)) (or (or ?v_120 ?v_61) P18)) (or (or ?v_147 ?v_151) ?v_101)) (or (or ?v_97 ?v_34) ?v_28)) (or (or P16 P16) ?v_103)) (or (or P14 ?v_96) ?v_76)) (or (or P28 ?v_25) ?v_52)) (or (or ?v_141 ?v_77) ?v_19)) (or (or ?v_143 P12) ?v_27)) (or (or ?v_90 ?v_154) ?v_153)) (or (or ?v_80 ?v_44) ?v_48)) (or (or P11 ?v_28) ?v_34)) (or (or ?v_155 ?v_118) ?v_17)) (or (or ?v_32 P4) ?v_55)) (or (or ?v_8 ?v_87) P7)) (or (or ?v_19 P25) ?v_51)) (or (or ?v_70 P1) P9)) (or (or ?v_87 ?v_116) ?v_1)) (or (or ?v_18 ?v_87) ?v_133)) (or (or ?v_7 ?v_59) ?v_64)) (or (or ?v_70 ?v_68) ?v_39)) (or (or ?v_74 ?v_48) P21)) (or (or ?v_118 ?v_114) ?v_93)) (or (or ?v_119 P4) P25)) (or (or ?v_120 ?v_102) ?v_154)) (or (or ?v_97 P21) P24)) (or (or ?v_70 P25) P20)) (or (or ?v_36 ?v_88) ?v_51)) (or (or ?v_145 ?v_149) ?v_13)) (or (or ?v_22 ?v_151) ?v_43)) (or (or P20 ?v_130) ?v_142)) (or (or ?v_51 ?v_143) ?v_75)) (or ?v_156 P28)) (or (or ?v_133 ?v_78) ?v_130)) (or (or ?v_74 ?v_152) P16)) (or (or ?v_65 P15) P8)) (or (or ?v_5 P13) ?v_100)) (or (or ?v_18 ?v_18) ?v_88)) (or (or ?v_49 ?v_94) ?v_111)) (or (or ?v_53 ?v_133) ?v_94)) (or (or ?v_90 P18) ?v_19)) (or (or ?v_35 ?v_29) ?v_143)) (or (or ?v_118 P2) ?v_39)) (or (or P6 ?v_71) ?v_84)) (or (or ?v_94 ?v_114) ?v_97)) (or (or ?v_20 ?v_125) ?v_152)) (or (or ?v_52 ?v_35) P26)) (or (or ?v_139 ?v_137) ?v_4)) (or (or ?v_9 ?v_6) ?v_146)) (or (or ?v_86 ?v_142) ?v_129)) (or (or P28 ?v_147) ?v_90)) (or (or ?v_95 ?v_14) P28)) (or (or ?v_56 ?v_25) ?v_127)) (or (or ?v_130 P9) ?v_21)) (or (or ?v_0 ?v_117) ?v_50)) (or (or ?v_98 ?v_53) ?v_149)) (or (or ?v_64 ?v_28) ?v_128)) (or (or P27 ?v_81) ?v_35)) (or (or ?v_9 ?v_92) ?v_12)) (or (or ?v_44 P26) ?v_107)) (or (or ?v_93 ?v_113) ?v_79)) (or (or ?v_14 ?v_95) ?v_154)) (or (or ?v_123 ?v_95) ?v_106)) (or (or P24 ?v_157) ?v_88)) (or (or ?v_41 ?v_17) ?v_24)) (or ?v_158 ?v_78)) (or (or ?v_95 ?v_28) ?v_5)) (or (or P10 ?v_100) ?v_130)) (or (or ?v_29 ?v_122) ?v_6)) (or (or ?v_5 ?v_62) ?v_134)) (or (or ?v_54 P1) ?v_53)) (or (or ?v_48 ?v_66) ?v_53)) (or (or ?v_74 ?v_40) ?v_32)) (or ?v_159 P13)) (or (or P18 ?v_3) ?v_55)) (or (or ?v_1 ?v_126) ?v_58)) (or (or ?v_66 ?v_104) ?v_149)) (or (or ?v_11 ?v_5) ?v_138)) (or (or P1 ?v_81) ?v_41)) (or (or ?v_103 ?v_47) ?v_57)) (or (or ?v_120 ?v_96) ?v_14)) (or (or P4 ?v_149) ?v_99)) (or (or ?v_33 ?v_128) ?v_28)) (or (or ?v_107 ?v_119) ?v_28)) (or (or ?v_3 ?v_41) P14)) (or (or ?v_131 P15) ?v_48)) (or (or ?v_20 ?v_142) ?v_125)) (or (or ?v_48 ?v_86) ?v_29)) (or (or ?v_79 ?v_22) ?v_126)) (or (or ?v_25 ?v_51) ?v_68)) (or (or ?v_83 ?v_151) P18)) (or (or ?v_44 P22) P13)) (or (or ?v_56 P28) ?v_35)) (or (or ?v_59 P11) ?v_110)) (or (or ?v_155 ?v_104) ?v_146)))))))))))))))))))))))))
(check-sat)
(exit)
